(set-info :source |printed by MathSAT|)
(declare-fun call__DRAGON_.ite35 () Int)
(declare-fun call__DRAGON_.g04 () Bool)
(declare-fun call__DRAGON_.ite11 () Int)
(declare-fun call_First.flby () Int)
(declare-fun call__DRAGON_.ite5 () Int)
(declare-fun call__DRAGON_.ite50 () Int)
(declare-fun call__DRAGON_.ite32 () Int)
(declare-fun call__DRAGON_.g05 () Bool)
(declare-fun call_Sofar.flby () Bool)
(declare-fun call__DRAGON_.ite34 () Int)
(declare-fun call_First.First () Int)
(declare-fun call__DRAGON_.ite24 () Int)
(declare-fun call__DRAGON_.ite26 () Int)
(declare-fun call__DRAGON_.flby6 () Int)
(declare-fun call__DRAGON_.ite3 () Int)
(declare-fun param_e03 () Bool)
(declare-fun call__DRAGON_.ite47 () Int)
(declare-fun call__DRAGON_.g02 () Bool)
(declare-fun call__DRAGON_.ite46 () Int)
(declare-fun call__DRAGON_.ite23 () Int)
(declare-fun call_Sofar.Sofar () Bool)
(declare-fun call__DRAGON_.ite49 () Int)
(declare-fun call__DRAGON_.ite38 () Int)
(declare-fun call__DRAGON_.ite15 () Int)
(declare-fun param_e10 () Bool)
(declare-fun call__DRAGON_.ite51 () Int)
(declare-fun call__DRAGON_.ite61 () Int)
(declare-fun call__DRAGON_.ite59 () Int)
(declare-fun call__DRAGON_.flby5 () Int)
(declare-fun call__DRAGON_.g08 () Bool)
(declare-fun param_e09 () Bool)
(declare-fun call__DRAGON_.ite30 () Int)
(declare-fun call__DRAGON_.exclusive () Int)
(declare-fun dirty () Int)
(declare-fun call__DRAGON_.ite45 () Int)
(declare-fun call__DRAGON_.flby () Int)
(declare-fun call__DRAGON_.ite20 () Int)
(declare-fun call__DRAGON_.ite36 () Int)
(declare-fun exclusive () Int)
(declare-fun call__DRAGON_.ite4 () Int)
(declare-fun call__DRAGON_.ite12 () Int)
(declare-fun call__DRAGON_.shared_dirty () Int)
(declare-fun call__DRAGON_.dirty () Int)
(declare-fun call__DRAGON_.ite29 () Int)
(declare-fun shared () Int)
(declare-fun _OK_ () Bool)
(declare-fun param_e04 () Bool)
(declare-fun call__DRAGON_.ite27 () Int)
(declare-fun call__DRAGON_.ite60 () Int)
(declare-fun call__DRAGON_.ite57 () Int)
(declare-fun call__DRAGON_.ite22 () Int)
(declare-fun call__DRAGON_.ite () Bool)
(declare-fun call__DRAGON_.ite41 () Int)
(declare-fun call__DRAGON_.ite28 () Int)
(declare-fun call__DRAGON_.ite19 () Int)
(declare-fun call__DRAGON_.ite7 () Int)
(declare-fun call__DRAGON_.ite39 () Int)
(declare-fun call__DRAGON_.ite52 () Int)
(declare-fun call__DRAGON_.ite44 () Int)
(declare-fun call__DRAGON_.flby4 () Int)
(declare-fun call__DRAGON_.invalid () Int)
(declare-fun call__DRAGON_.ite37 () Int)
(declare-fun param_e05 () Bool)
(declare-fun call__DRAGON_.ite21 () Int)
(declare-fun call__DRAGON_.ite56 () Int)
(declare-fun call__DRAGON_.mem_init () Int)
(declare-fun call__DRAGON_.ite40 () Int)
(declare-fun call__DRAGON_.ite10 () Int)
(declare-fun env () Bool)
(declare-fun param_e01 () Bool)
(declare-fun call__DRAGON_.flby3 () Int)
(declare-fun erreur () Bool)
(declare-fun param_e08 () Bool)
(declare-fun call__DRAGON_.ite16 () Int)
(declare-fun param_init_invalid () Int)
(declare-fun call__DRAGON_.ite33 () Int)
(declare-fun param_e11 () Bool)
(declare-fun call__DRAGON_.ite13 () Int)
(declare-fun param_e12 () Bool)
(declare-fun call__DRAGON_.erreur () Bool)
(declare-fun call__DRAGON_.ite31 () Int)
(declare-fun invalid () Int)
(declare-fun param_e02 () Bool)
(declare-fun call__DRAGON_.ite55 () Int)
(declare-fun call__DRAGON_.ite42 () Int)
(declare-fun call__DRAGON_.ite14 () Int)
(declare-fun call__DRAGON_.flby2 () Int)
(declare-fun call__DRAGON_.ite9 () Int)
(declare-fun shared_dirty () Int)
(declare-fun call__DRAGON_.ite58 () Int)
(declare-fun call__DRAGON_.ite18 () Int)
(declare-fun param_e07 () Bool)
(declare-fun call__DRAGON_.ite2 () Int)
(declare-fun call__DRAGON_.ite8 () Int)
(declare-fun call__DRAGON_.g06 () Bool)
(declare-fun call__DRAGON_.ite54 () Int)
(declare-fun call__DRAGON_.ite53 () Int)
(declare-fun call__DRAGON_.ite6 () Int)
(declare-fun call__DRAGON_.ite17 () Int)
(declare-fun call__DRAGON_.ite43 () Int)
(declare-fun call_excludes12.excludes () Bool)
(declare-fun param_e06 () Bool)
(declare-fun call__DRAGON_.shared () Int)
(declare-fun call__DRAGON_.ite48 () Int)
(declare-fun call__DRAGON_.ite25 () Int)
(define-fun .def_1783 () Bool (= call_First.flby call_First.First))
(define-fun .def_1781 () Bool (= call_Sofar.flby call_Sofar.Sofar))
(define-fun .def_1590 () Bool (not param_e02))
(define-fun .def_1571 () Bool (not param_e01))
(define-fun .def_1679 () Bool (and .def_1571 .def_1590))
(define-fun .def_1631 () Bool (not param_e03))
(define-fun .def_1680 () Bool (and .def_1631 .def_1679))
(define-fun .def_1647 () Bool (not param_e04))
(define-fun .def_1681 () Bool (and .def_1647 .def_1680))
(define-fun .def_1424 () Bool (not param_e05))
(define-fun .def_1682 () Bool (and .def_1424 .def_1681))
(define-fun .def_1406 () Bool (not param_e06))
(define-fun .def_1683 () Bool (and .def_1406 .def_1682))
(define-fun .def_1441 () Bool (not param_e07))
(define-fun .def_1684 () Bool (and .def_1441 .def_1683))
(define-fun .def_1460 () Bool (not param_e08))
(define-fun .def_1685 () Bool (and .def_1460 .def_1684))
(define-fun .def_1299 () Bool (not param_e09))
(define-fun .def_1686 () Bool (and .def_1299 .def_1685))
(define-fun .def_1305 () Bool (not param_e10))
(define-fun .def_1687 () Bool (and .def_1305 .def_1686))
(define-fun .def_1312 () Bool (not param_e11))
(define-fun .def_1688 () Bool (and .def_1312 .def_1687))
(define-fun .def_1319 () Bool (not param_e12))
(define-fun .def_1766 () Bool (and .def_1319 .def_1688))
(define-fun .def_1755 () Bool (and param_e01 .def_1590))
(define-fun .def_1756 () Bool (and .def_1631 .def_1755))
(define-fun .def_1757 () Bool (and .def_1647 .def_1756))
(define-fun .def_1758 () Bool (and .def_1424 .def_1757))
(define-fun .def_1759 () Bool (and .def_1406 .def_1758))
(define-fun .def_1760 () Bool (and .def_1441 .def_1759))
(define-fun .def_1761 () Bool (and .def_1460 .def_1760))
(define-fun .def_1762 () Bool (and .def_1299 .def_1761))
(define-fun .def_1763 () Bool (and .def_1305 .def_1762))
(define-fun .def_1764 () Bool (and .def_1312 .def_1763))
(define-fun .def_1765 () Bool (and .def_1319 .def_1764))
(define-fun .def_1767 () Bool (or .def_1765 .def_1766))
(define-fun .def_1744 () Bool (and .def_1571 param_e02))
(define-fun .def_1745 () Bool (and .def_1631 .def_1744))
(define-fun .def_1746 () Bool (and .def_1647 .def_1745))
(define-fun .def_1747 () Bool (and .def_1424 .def_1746))
(define-fun .def_1748 () Bool (and .def_1406 .def_1747))
(define-fun .def_1749 () Bool (and .def_1441 .def_1748))
(define-fun .def_1750 () Bool (and .def_1460 .def_1749))
(define-fun .def_1751 () Bool (and .def_1299 .def_1750))
(define-fun .def_1752 () Bool (and .def_1305 .def_1751))
(define-fun .def_1753 () Bool (and .def_1312 .def_1752))
(define-fun .def_1754 () Bool (and .def_1319 .def_1753))
(define-fun .def_1768 () Bool (or .def_1754 .def_1767))
(define-fun .def_1734 () Bool (and param_e03 .def_1679))
(define-fun .def_1735 () Bool (and .def_1647 .def_1734))
(define-fun .def_1736 () Bool (and .def_1424 .def_1735))
(define-fun .def_1737 () Bool (and .def_1406 .def_1736))
(define-fun .def_1738 () Bool (and .def_1441 .def_1737))
(define-fun .def_1739 () Bool (and .def_1460 .def_1738))
(define-fun .def_1740 () Bool (and .def_1299 .def_1739))
(define-fun .def_1741 () Bool (and .def_1305 .def_1740))
(define-fun .def_1742 () Bool (and .def_1312 .def_1741))
(define-fun .def_1743 () Bool (and .def_1319 .def_1742))
(define-fun .def_1769 () Bool (or .def_1743 .def_1768))
(define-fun .def_1725 () Bool (and param_e04 .def_1680))
(define-fun .def_1726 () Bool (and .def_1424 .def_1725))
(define-fun .def_1727 () Bool (and .def_1406 .def_1726))
(define-fun .def_1728 () Bool (and .def_1441 .def_1727))
(define-fun .def_1729 () Bool (and .def_1460 .def_1728))
(define-fun .def_1730 () Bool (and .def_1299 .def_1729))
(define-fun .def_1731 () Bool (and .def_1305 .def_1730))
(define-fun .def_1732 () Bool (and .def_1312 .def_1731))
(define-fun .def_1733 () Bool (and .def_1319 .def_1732))
(define-fun .def_1770 () Bool (or .def_1733 .def_1769))
(define-fun .def_1717 () Bool (and param_e05 .def_1681))
(define-fun .def_1718 () Bool (and .def_1406 .def_1717))
(define-fun .def_1719 () Bool (and .def_1441 .def_1718))
(define-fun .def_1720 () Bool (and .def_1460 .def_1719))
(define-fun .def_1721 () Bool (and .def_1299 .def_1720))
(define-fun .def_1722 () Bool (and .def_1305 .def_1721))
(define-fun .def_1723 () Bool (and .def_1312 .def_1722))
(define-fun .def_1724 () Bool (and .def_1319 .def_1723))
(define-fun .def_1771 () Bool (or .def_1724 .def_1770))
(define-fun .def_1710 () Bool (and param_e06 .def_1682))
(define-fun .def_1711 () Bool (and .def_1441 .def_1710))
(define-fun .def_1712 () Bool (and .def_1460 .def_1711))
(define-fun .def_1713 () Bool (and .def_1299 .def_1712))
(define-fun .def_1714 () Bool (and .def_1305 .def_1713))
(define-fun .def_1715 () Bool (and .def_1312 .def_1714))
(define-fun .def_1716 () Bool (and .def_1319 .def_1715))
(define-fun .def_1772 () Bool (or .def_1716 .def_1771))
(define-fun .def_1704 () Bool (and param_e07 .def_1683))
(define-fun .def_1705 () Bool (and .def_1460 .def_1704))
(define-fun .def_1706 () Bool (and .def_1299 .def_1705))
(define-fun .def_1707 () Bool (and .def_1305 .def_1706))
(define-fun .def_1708 () Bool (and .def_1312 .def_1707))
(define-fun .def_1709 () Bool (and .def_1319 .def_1708))
(define-fun .def_1773 () Bool (or .def_1709 .def_1772))
(define-fun .def_1699 () Bool (and param_e08 .def_1684))
(define-fun .def_1700 () Bool (and .def_1299 .def_1699))
(define-fun .def_1701 () Bool (and .def_1305 .def_1700))
(define-fun .def_1702 () Bool (and .def_1312 .def_1701))
(define-fun .def_1703 () Bool (and .def_1319 .def_1702))
(define-fun .def_1774 () Bool (or .def_1703 .def_1773))
(define-fun .def_1695 () Bool (and param_e09 .def_1685))
(define-fun .def_1696 () Bool (and .def_1305 .def_1695))
(define-fun .def_1697 () Bool (and .def_1312 .def_1696))
(define-fun .def_1698 () Bool (and .def_1319 .def_1697))
(define-fun .def_1775 () Bool (or .def_1698 .def_1774))
(define-fun .def_1692 () Bool (and param_e10 .def_1686))
(define-fun .def_1693 () Bool (and .def_1312 .def_1692))
(define-fun .def_1694 () Bool (and .def_1319 .def_1693))
(define-fun .def_1776 () Bool (or .def_1694 .def_1775))
(define-fun .def_1690 () Bool (and param_e11 .def_1687))
(define-fun .def_1691 () Bool (and .def_1319 .def_1690))
(define-fun .def_1777 () Bool (or .def_1691 .def_1776))
(define-fun .def_1689 () Bool (and param_e12 .def_1688))
(define-fun .def_1778 () Bool (or .def_1689 .def_1777))
(define-fun .def_1779 () Bool (= call_excludes12.excludes .def_1778))
(define-fun .def_1677 () Bool (= call__DRAGON_.mem_init call__DRAGON_.flby))
(define-fun .def_1675 () Bool (= call__DRAGON_.erreur call__DRAGON_.ite))
(define-fun .def_1673 () Bool (= call__DRAGON_.flby6 call__DRAGON_.invalid))
(define-fun .def_1671 () Bool (= call__DRAGON_.flby5 call__DRAGON_.dirty))
(define-fun .def_1669 () Bool (= call__DRAGON_.flby4 call__DRAGON_.shared_dirty))
(define-fun .def_1667 () Bool (= call__DRAGON_.flby3 call__DRAGON_.shared))
(define-fun .def_1664 () Bool (= call__DRAGON_.flby2 call__DRAGON_.exclusive))
(define-fun .def_1659 () Bool (<= 2 call__DRAGON_.exclusive))
(define-fun .def_1661 () Bool (not .def_1659))
(define-fun .def_1662 () Bool (or call__DRAGON_.ite .def_1661))
(define-fun .def_1658 () Bool (not call__DRAGON_.ite))
(define-fun .def_1660 () Bool (or .def_1658 .def_1659))
(define-fun .def_1663 () Bool (and .def_1660 .def_1662))
(define-fun .def_1665 () Bool (and .def_1663 .def_1664))
(define-fun .def_1653 () Bool (= call__DRAGON_.ite29 call__DRAGON_.ite30))
(define-fun .def_1654 () Bool (or param_e04 .def_1653))
(define-fun .def_1650 () Bool (= call__DRAGON_.ite23 call__DRAGON_.ite30))
(define-fun .def_1651 () Bool (or .def_1647 .def_1650))
(define-fun .def_1646 () Bool (= call__DRAGON_.ite43 call__DRAGON_.ite34))
(define-fun .def_1648 () Bool (or .def_1646 .def_1647))
(define-fun .def_1642 () Bool (= call__DRAGON_.ite42 call__DRAGON_.ite43))
(define-fun .def_1644 () Bool (or .def_1642 param_e04))
(define-fun .def_1649 () Bool (and .def_1644 .def_1648))
(define-fun .def_1652 () Bool (and .def_1649 .def_1651))
(define-fun .def_1655 () Bool (and .def_1652 .def_1654))
(define-fun .def_1638 () Bool (= call__DRAGON_.ite8 call__DRAGON_.ite9))
(define-fun .def_1639 () Bool (or param_e03 .def_1638))
(define-fun .def_1635 () Bool (= call__DRAGON_.ite9 call__DRAGON_.ite4))
(define-fun .def_1636 () Bool (or .def_1631 .def_1635))
(define-fun .def_1630 () Bool (= call__DRAGON_.ite44 call__DRAGON_.ite33))
(define-fun .def_1632 () Bool (or .def_1630 .def_1631))
(define-fun .def_1626 () Bool (= call__DRAGON_.ite44 call__DRAGON_.ite43))
(define-fun .def_1628 () Bool (or .def_1626 param_e03))
(define-fun .def_1633 () Bool (and .def_1628 .def_1632))
(define-fun .def_1637 () Bool (and .def_1633 .def_1636))
(define-fun .def_1640 () Bool (and .def_1637 .def_1639))
(define-fun .def_1621 () Bool (= call__DRAGON_.ite31 call__DRAGON_.ite30))
(define-fun .def_1622 () Bool (or param_e02 .def_1621))
(define-fun .def_1617 () Bool (= call__DRAGON_.ite22 call__DRAGON_.ite31))
(define-fun .def_1618 () Bool (or .def_1590 .def_1617))
(define-fun .def_1612 () Bool (= call__DRAGON_.ite20 call__DRAGON_.ite21))
(define-fun .def_1613 () Bool (or param_e02 .def_1612))
(define-fun .def_1609 () Bool (= call__DRAGON_.ite12 call__DRAGON_.ite21))
(define-fun .def_1610 () Bool (or .def_1590 .def_1609))
(define-fun .def_1604 () Bool (= call__DRAGON_.ite10 call__DRAGON_.ite9))
(define-fun .def_1605 () Bool (or param_e02 .def_1604))
(define-fun .def_1600 () Bool (= call__DRAGON_.ite3 call__DRAGON_.ite10))
(define-fun .def_1601 () Bool (or .def_1590 .def_1600))
(define-fun .def_1597 () Bool (= call__DRAGON_.ite59 call__DRAGON_.ite60))
(define-fun .def_1598 () Bool (or param_e02 .def_1597))
(define-fun .def_1594 () Bool (= call__DRAGON_.ite60 call__DRAGON_.ite47))
(define-fun .def_1595 () Bool (or .def_1590 .def_1594))
(define-fun .def_1589 () Bool (= call__DRAGON_.ite32 call__DRAGON_.ite45))
(define-fun .def_1591 () Bool (or .def_1589 .def_1590))
(define-fun .def_1586 () Bool (= call__DRAGON_.ite45 call__DRAGON_.ite44))
(define-fun .def_1588 () Bool (or .def_1586 param_e02))
(define-fun .def_1592 () Bool (and .def_1588 .def_1591))
(define-fun .def_1596 () Bool (and .def_1592 .def_1595))
(define-fun .def_1599 () Bool (and .def_1596 .def_1598))
(define-fun .def_1602 () Bool (and .def_1599 .def_1601))
(define-fun .def_1606 () Bool (and .def_1602 .def_1605))
(define-fun .def_1611 () Bool (and .def_1606 .def_1610))
(define-fun .def_1614 () Bool (and .def_1611 .def_1613))
(define-fun .def_1619 () Bool (and .def_1614 .def_1618))
(define-fun .def_1623 () Bool (and .def_1619 .def_1622))
(define-fun .def_1580 () Bool (= call__DRAGON_.ite11 call__DRAGON_.ite10))
(define-fun .def_1581 () Bool (or param_e01 .def_1580))
(define-fun .def_1576 () Bool (= call__DRAGON_.ite2 call__DRAGON_.ite11))
(define-fun .def_1577 () Bool (or .def_1571 .def_1576))
(define-fun .def_1570 () Bool (= call__DRAGON_.ite61 call__DRAGON_.ite46))
(define-fun .def_1572 () Bool (or .def_1570 .def_1571))
(define-fun .def_1566 () Bool (= call__DRAGON_.ite61 call__DRAGON_.ite60))
(define-fun .def_1568 () Bool (or .def_1566 param_e01))
(define-fun .def_1573 () Bool (and .def_1568 .def_1572))
(define-fun .def_1578 () Bool (and .def_1573 .def_1577))
(define-fun .def_1582 () Bool (and .def_1578 .def_1581))
(define-fun .def_1560 () Bool (= call__DRAGON_.ite55 call__DRAGON_.ite52))
(define-fun .def_1561 () Bool (or .def_1312 .def_1560))
(define-fun .def_1557 () Bool (= call__DRAGON_.ite54 call__DRAGON_.ite55))
(define-fun .def_1558 () Bool (or param_e11 .def_1557))
(define-fun .def_1562 () Bool (and .def_1558 .def_1561))
(define-fun .def_1553 () Bool (= call__DRAGON_.ite56 call__DRAGON_.ite51))
(define-fun .def_1554 () Bool (or .def_1305 .def_1553))
(define-fun .def_1550 () Bool (= call__DRAGON_.ite56 call__DRAGON_.ite55))
(define-fun .def_1551 () Bool (or param_e10 .def_1550))
(define-fun .def_1555 () Bool (and .def_1551 .def_1554))
(define-fun .def_1545 () Bool (= call__DRAGON_.ite57 call__DRAGON_.ite50))
(define-fun .def_1546 () Bool (or .def_1299 .def_1545))
(define-fun .def_1542 () Bool (= call__DRAGON_.ite57 call__DRAGON_.ite56))
(define-fun .def_1543 () Bool (or param_e09 .def_1542))
(define-fun .def_1547 () Bool (and .def_1543 .def_1546))
(define-fun .def_1539 () Bool (= env call_Sofar.Sofar))
(define-fun .def_1536 () Bool (= erreur call__DRAGON_.erreur))
(define-fun .def_1532 () Bool (= invalid call__DRAGON_.invalid))
(define-fun .def_1529 () Bool (= dirty call__DRAGON_.dirty))
(define-fun .def_1526 () Bool (= shared_dirty call__DRAGON_.shared_dirty))
(define-fun .def_1523 () Bool (= shared call__DRAGON_.shared))
(define-fun .def_1520 () Bool (= exclusive call__DRAGON_.exclusive))
(define-fun .def_1509 () Int (* (- 1) call_First.First))
(define-fun .def_1510 () Int (+ invalid .def_1509))
(define-fun .def_1511 () Int (+ dirty .def_1510))
(define-fun .def_1512 () Int (+ shared_dirty .def_1511))
(define-fun .def_1513 () Int (+ shared .def_1512))
(define-fun .def_1514 () Int (+ exclusive .def_1513))
(define-fun .def_1515 () Bool (= .def_1514 0))
(define-fun .def_1492 () Bool (not env))
(define-fun .def_1516 () Bool (or .def_1492 .def_1515))
(define-fun .def_1517 () Bool (= _OK_ .def_1516))
(define-fun .def_1486 () Bool (= call__DRAGON_.ite39 call__DRAGON_.ite40))
(define-fun .def_1487 () Bool (or param_e08 .def_1486))
(define-fun .def_1483 () Bool (= call__DRAGON_.ite37 call__DRAGON_.ite40))
(define-fun .def_1484 () Bool (or .def_1460 .def_1483))
(define-fun .def_1480 () Bool (= call__DRAGON_.ite27 call__DRAGON_.ite28))
(define-fun .def_1481 () Bool (or param_e08 .def_1480))
(define-fun .def_1477 () Bool (= call__DRAGON_.ite25 call__DRAGON_.ite28))
(define-fun .def_1478 () Bool (or .def_1460 .def_1477))
(define-fun .def_1474 () Bool (= call__DRAGON_.ite17 call__DRAGON_.ite18))
(define-fun .def_1475 () Bool (or param_e08 .def_1474))
(define-fun .def_1471 () Bool (= call__DRAGON_.ite18 call__DRAGON_.ite15))
(define-fun .def_1472 () Bool (or .def_1460 .def_1471))
(define-fun .def_1467 () Bool (= call__DRAGON_.ite7 call__DRAGON_.ite8))
(define-fun .def_1468 () Bool (or param_e08 .def_1467))
(define-fun .def_1464 () Bool (= call__DRAGON_.ite5 call__DRAGON_.ite8))
(define-fun .def_1465 () Bool (or .def_1460 .def_1464))
(define-fun .def_1459 () Bool (= call__DRAGON_.ite58 call__DRAGON_.ite49))
(define-fun .def_1461 () Bool (or .def_1459 .def_1460))
(define-fun .def_1455 () Bool (= call__DRAGON_.ite58 call__DRAGON_.ite57))
(define-fun .def_1457 () Bool (or .def_1455 param_e08))
(define-fun .def_1462 () Bool (and .def_1457 .def_1461))
(define-fun .def_1466 () Bool (and .def_1462 .def_1465))
(define-fun .def_1469 () Bool (and .def_1466 .def_1468))
(define-fun .def_1473 () Bool (and .def_1469 .def_1472))
(define-fun .def_1476 () Bool (and .def_1473 .def_1475))
(define-fun .def_1479 () Bool (and .def_1476 .def_1478))
(define-fun .def_1482 () Bool (and .def_1479 .def_1481))
(define-fun .def_1485 () Bool (and .def_1482 .def_1484))
(define-fun .def_1488 () Bool (and .def_1485 .def_1487))
(define-fun .def_1450 () Bool (= call__DRAGON_.ite59 call__DRAGON_.ite58))
(define-fun .def_1451 () Bool (or param_e07 .def_1450))
(define-fun .def_1446 () Bool (= call__DRAGON_.ite48 call__DRAGON_.ite59))
(define-fun .def_1447 () Bool (or .def_1441 .def_1446))
(define-fun .def_1440 () Bool (= call__DRAGON_.ite41 call__DRAGON_.ite36))
(define-fun .def_1442 () Bool (or .def_1440 .def_1441))
(define-fun .def_1436 () Bool (= call__DRAGON_.ite41 call__DRAGON_.ite40))
(define-fun .def_1438 () Bool (or .def_1436 param_e07))
(define-fun .def_1443 () Bool (and .def_1438 .def_1442))
(define-fun .def_1448 () Bool (and .def_1443 .def_1447))
(define-fun .def_1452 () Bool (and .def_1448 .def_1451))
(define-fun .def_1431 () Bool (= call__DRAGON_.ite19 call__DRAGON_.ite20))
(define-fun .def_1432 () Bool (or param_e05 .def_1431))
(define-fun .def_1428 () Bool (= call__DRAGON_.ite13 call__DRAGON_.ite20))
(define-fun .def_1429 () Bool (or .def_1424 .def_1428))
(define-fun .def_1423 () Bool (= call__DRAGON_.ite42 call__DRAGON_.ite35))
(define-fun .def_1425 () Bool (or .def_1423 .def_1424))
(define-fun .def_1419 () Bool (= call__DRAGON_.ite41 call__DRAGON_.ite42))
(define-fun .def_1421 () Bool (or .def_1419 param_e05))
(define-fun .def_1426 () Bool (and .def_1421 .def_1425))
(define-fun .def_1430 () Bool (and .def_1426 .def_1429))
(define-fun .def_1433 () Bool (and .def_1430 .def_1432))
(define-fun .def_1414 () Bool (= call__DRAGON_.ite29 call__DRAGON_.ite28))
(define-fun .def_1415 () Bool (or param_e06 .def_1414))
(define-fun .def_1410 () Bool (= call__DRAGON_.ite24 call__DRAGON_.ite29))
(define-fun .def_1411 () Bool (or .def_1406 .def_1410))
(define-fun .def_1405 () Bool (= call__DRAGON_.ite19 call__DRAGON_.ite14))
(define-fun .def_1407 () Bool (or .def_1405 .def_1406))
(define-fun .def_1401 () Bool (= call__DRAGON_.ite19 call__DRAGON_.ite18))
(define-fun .def_1403 () Bool (or .def_1401 param_e06))
(define-fun .def_1408 () Bool (and .def_1403 .def_1407))
(define-fun .def_1412 () Bool (and .def_1408 .def_1411))
(define-fun .def_1416 () Bool (and .def_1412 .def_1415))
(define-fun .def_1434 () Bool (and .def_1416 .def_1433))
(define-fun .def_1453 () Bool (and .def_1434 .def_1452))
(define-fun .def_1489 () Bool (and .def_1453 .def_1488))
(define-fun .def_1518 () Bool (and .def_1489 .def_1517))
(define-fun .def_1521 () Bool (and .def_1518 .def_1520))
(define-fun .def_1524 () Bool (and .def_1521 .def_1523))
(define-fun .def_1527 () Bool (and .def_1524 .def_1526))
(define-fun .def_1530 () Bool (and .def_1527 .def_1529))
(define-fun .def_1533 () Bool (and .def_1530 .def_1532))
(define-fun .def_1537 () Bool (and .def_1533 .def_1536))
(define-fun .def_1540 () Bool (and .def_1537 .def_1539))
(define-fun .def_1548 () Bool (and .def_1540 .def_1547))
(define-fun .def_1556 () Bool (and .def_1548 .def_1555))
(define-fun .def_1563 () Bool (and .def_1556 .def_1562))
(define-fun .def_1583 () Bool (and .def_1563 .def_1582))
(define-fun .def_1624 () Bool (and .def_1583 .def_1623))
(define-fun .def_1641 () Bool (and .def_1624 .def_1640))
(define-fun .def_1656 () Bool (and .def_1641 .def_1655))
(define-fun .def_1666 () Bool (and .def_1656 .def_1665))
(define-fun .def_1668 () Bool (and .def_1666 .def_1667))
(define-fun .def_1670 () Bool (and .def_1668 .def_1669))
(define-fun .def_1672 () Bool (and .def_1670 .def_1671))
(define-fun .def_1674 () Bool (and .def_1672 .def_1673))
(define-fun .def_1676 () Bool (and .def_1674 .def_1675))
(define-fun .def_1678 () Bool (and .def_1676 .def_1677))
(define-fun .def_1780 () Bool (and .def_1678 .def_1779))
(define-fun .def_1782 () Bool (and .def_1780 .def_1781))
(define-fun .def_1784 () Bool (and .def_1782 .def_1783))
(define-fun .def_1397 () Bool (= param_init_invalid call_First.flby))
(define-fun .def_1389 () Bool (<= param_init_invalid 0))
(define-fun .def_1390 () Bool (not .def_1389))
(define-fun .def_1392 () Bool (and .def_1390 call_excludes12.excludes))
(define-fun .def_1394 () Bool (= .def_1392 call_Sofar.flby))
(define-fun .def_1387 () Bool (= call__DRAGON_.flby4 0))
(define-fun .def_1384 () Bool (= call__DRAGON_.flby3 0))
(define-fun .def_1381 () Bool (= call__DRAGON_.flby2 0))
(define-fun .def_1378 () Bool (= param_init_invalid call__DRAGON_.flby))
(define-fun .def_1372 () Bool (= call__DRAGON_.ite37 0))
(define-fun .def_1365 () Bool (not call__DRAGON_.g08))
(define-fun .def_1373 () Bool (or .def_1365 .def_1372))
(define-fun .def_1368 () Bool (= call__DRAGON_.ite5 0))
(define-fun .def_1369 () Bool (or .def_1365 .def_1368))
(define-fun .def_1363 () Bool (= call__DRAGON_.ite25 1))
(define-fun .def_1366 () Bool (or .def_1363 .def_1365))
(define-fun .def_1370 () Bool (and .def_1366 .def_1369))
(define-fun .def_1374 () Bool (and .def_1370 .def_1373))
(define-fun .def_1359 () Bool (= call__DRAGON_.ite24 1))
(define-fun .def_1357 () Bool (not call__DRAGON_.g06))
(define-fun .def_1360 () Bool (or .def_1357 .def_1359))
(define-fun .def_1353 () Bool (= call__DRAGON_.ite13 0))
(define-fun .def_1351 () Bool (not call__DRAGON_.g05))
(define-fun .def_1354 () Bool (or .def_1351 .def_1353))
(define-fun .def_1347 () Bool (= call__DRAGON_.ite23 0))
(define-fun .def_1345 () Bool (not call__DRAGON_.g04))
(define-fun .def_1348 () Bool (or .def_1345 .def_1347))
(define-fun .def_1340 () Bool (= call__DRAGON_.ite3 0))
(define-fun .def_1337 () Bool (not call__DRAGON_.g02))
(define-fun .def_1341 () Bool (or .def_1337 .def_1340))
(define-fun .def_1335 () Bool (= call__DRAGON_.ite32 0))
(define-fun .def_1338 () Bool (or .def_1335 .def_1337))
(define-fun .def_1342 () Bool (and .def_1338 .def_1341))
(define-fun .def_1332 () Bool (= call__DRAGON_.flby6 call__DRAGON_.mem_init))
(define-fun .def_1328 () Bool (= call__DRAGON_.flby5 0))
(define-fun .def_1323 () Bool (= call__DRAGON_.ite53 call__DRAGON_.ite54))
(define-fun .def_1324 () Bool (or .def_1319 .def_1323))
(define-fun .def_1317 () Bool (= call__DRAGON_.ite6 call__DRAGON_.ite7))
(define-fun .def_1320 () Bool (or .def_1317 .def_1319))
(define-fun .def_1325 () Bool (and .def_1320 .def_1324))
(define-fun .def_1310 () Bool (= call__DRAGON_.ite26 call__DRAGON_.ite27))
(define-fun .def_1313 () Bool (or .def_1310 .def_1312))
(define-fun .def_1303 () Bool (= call__DRAGON_.ite16 call__DRAGON_.ite17))
(define-fun .def_1306 () Bool (or .def_1303 .def_1305))
(define-fun .def_1297 () Bool (= call__DRAGON_.ite38 call__DRAGON_.ite39))
(define-fun .def_1300 () Bool (or .def_1297 .def_1299))
(define-fun .def_1307 () Bool (and .def_1300 .def_1306))
(define-fun .def_1314 () Bool (and .def_1307 .def_1313))
(define-fun .def_1326 () Bool (and .def_1314 .def_1325))
(define-fun .def_1329 () Bool (and .def_1326 .def_1328))
(define-fun .def_1333 () Bool (and .def_1329 .def_1332))
(define-fun .def_1343 () Bool (and .def_1333 .def_1342))
(define-fun .def_1349 () Bool (and .def_1343 .def_1348))
(define-fun .def_1355 () Bool (and .def_1349 .def_1354))
(define-fun .def_1361 () Bool (and .def_1355 .def_1360))
(define-fun .def_1375 () Bool (and .def_1361 .def_1374))
(define-fun .def_1379 () Bool (and .def_1375 .def_1378))
(define-fun .def_1382 () Bool (and .def_1379 .def_1381))
(define-fun .def_1385 () Bool (and .def_1382 .def_1384))
(define-fun .def_1388 () Bool (and .def_1385 .def_1387))
(define-fun .def_1395 () Bool (and .def_1388 .def_1394))
(define-fun .def_1398 () Bool (and .def_1395 .def_1397))
(define-fun .def_1785 () Bool (and .def_1398 .def_1784))
(assert .def_1785)
